Traveling Salesman Problem/TSP_generados/Aleatorio1621103355_11.tsp
NAME: Aleatorio1621103355_11.tsp
COMMENT: Randomly generated scenario
TYPE: TSP
DIMENSION: 11
EDGE_WEIGHT_TYPE: ATT
NODE_COORD_SECTION
1 15.88 46.69
2 21.78 40.52
3 28.09 33.91
4 49.51 34.34
5 6.5 18.68
6 40.7 6.77
7 8.12 24.84
8 25.96 16.99
9 44.1 7.96
10 43.67 3.56
11 27.77 14.2
