Traveling Salesman Problem/TSP_generados/Aleatorio1621103355_11.opt.tour
NAME: Aleatorio1621103355_11.opt.tour
COMMENT: Optimal solution for Aleatorio1621103355_11 (142.15091347533075)
TYPE: TOUR
DIMENSION: 11
TOUR_SECTION
1 7 5 8 11 6 10 9 4 3 2
-1
EOF
